8
0, 275, 205, 215, 399, 573, 399, 301
275, 0, 372, 485, 125, 549, 614, 478
205, 372, 0, 219, 470, 407, 244, 108
215, 485, 219, 0, 606, 620, 247, 236
399, 125, 470, 606, 0, 559, 714, 571
573, 549, 407, 620, 559, 0, 506, 398
399, 614, 244, 247, 714, 506, 0, 148
301, 478, 108, 236, 571, 398, 148, 0
